1000
[100,102,104,105,106,107,108,109,110,111,112,113,114,117,118,119,121,123,125,128,129,130,131,132,133,134,135,138,141,144,146,149,150,151,152,153,154,155,157,159,160,161,162,163,164,165,167,168,171,172,173,174,175,177,179,180,181,184,185,186,188,189,191,192,193,194,196,197,200,201,202,203,204,205,207,208,209,210,212,213,214,215,217,218,219,220,221,222,223,224,225,226,227,228,231,232,233,234,235,239,240,241,242,243,244,246,247,248,249,251,253,256,257,258,260,264,268,269,271,272,273,275,276,277,278,279,280,281,282,283,286,287,289,290,291,292,293,294,295,296,298,299,300,301,302,305,306,307,308,309,310,311,312,313,314,315,316,317,318,319,320,321,322,323,324,326,328,329,331,332,334,335,336,337,338,339,340,341,343,344,345,346,347,349,350,351,353,354,355,356,358,360,361,362,363,364,365,366,368,370,371,372,373,374,375,376,378,379,380,381,382,383,384,387,389,390,391,392,393,394,395,396,397,399,400,401,402,403,405,406,407,409,410,412,414,415,416,417,419,420,422,424,425,428,429,430,431,432,433,434,435,436,437,438,439,440,441,442,445,446,447,449,450,451,452,453,454,457,459,461,462,464,465,467,468,469,470,472,473,474,476,477,478,479,480,482,484,486,487,488,489,490,491,493,496,497,498,499,500,501,502,504,506,508,509,510,514,515,516,517,518,522,523,524,525,526,527,528,530,531,532,533,534,536,537,538,539,540,542,543,544,545,546,547,548,550,551,552,556,558,560,561,562,565,566,567,568,569,570,572,573,575,577,578,579,581,582,583,584,585,586,587,588,589,590,591,592,593,594,595,596,597,598,599,600,601,602,603,604,607,609,611,613,614,616,618,619,620,621,622,623,624,625,626,627,628,629,631,632,633,634,635,636,638,640,641,642,644,645,646,648,649,650,651,652,653,654,655,659,660,662,664,665,667,668,670,674,675,677,678,680,681,682,683,684,685,686,687,689,690,691,693,694,695,698,699,701,702,703,705,706,707,708,709,710,711,712,713,714,716,717,718,719,721,723,724,725,726,729,730,732,733,735,736,737,739,740,741,742,743,746,747,748,749,750,751,753,754,755,756,758,761,762,763,764,766,768,769,770,772,775,776,777,778,779,781,782,783,784,785,786,787,788,789,790,791,792,793,794,795,796,798,799,800]
[2,2,3,2,1,1,1,3,1,3,3,1,2,4,3,4,2,1,1,5,2,3,1,2,2,2,3,3,2,2,5,1,1,2,1,1,1,1,2,2,2,2,1,2,2,1,1,1,1,1,2,2,2,6,2,2,1,2,1,2,1,3,7,1,1,4,3,1,1,1,2,3,1,5,3,2,2,2,2,1,2,5,1,1,1,1,1,2,1,4,2,1,2,1,1,2,1,1,2,1,3,2,2,2,1,2,3,1,1,1,2,1,1,2,2,2,1,1,1,4,2,1,2,1,1,1,3,3,1,1,2,1,3,1,3,1,4,1,1,1,1,2,1,2,4,2,1,1,2,4,2,1,1,1,1,2,3,2,3,6,1,5,1,1,2,1,2,2,2,1,1,3,1,2,1,1,3,3,1,2,1,2,2,5,2,2,3,2,1,1,1,2,4,3,3,1,3,1,2,1,6,3,1,4,1,4,1,2,1,1,1,1,1,2,2,4,5,1,1,3,1,1,1,2,3,1,2,2,2,1,3,2,4,1,1,3,1,3,1,2,2,3,1,3,1,2,2,2,3,1,1,1,2,1,2,2,1,1,2,2,3,2,3,2,2,1,2,1,2,2,2,1,1,2,1,2,2,2,5,1,2,2,2,4,2,1,2,4,1,2,1,1,1,1,1,2,1,1,2,2,1,1,2,3,2,1,3,1,3,2,2,3,1,1,2,3,3,2,2,1,2,2,2,2,3,2,1,7,1,3,3,1,1,2,2,2,1,2,1,1,1,2,1,1,3,6,1,2,1,1,4,4,1,3,3,4,1,3,1,1,3,1,2,1,2,4,2,1,1,1,3,1,2,1,1,2,3,1,2,2,1,2,1,3,1,1,1,3,1,3,1,2,2,4,2,1,2,1,1,2,1,1,1,3,1,3,1,1,1,1,1,1,1,1,1,1,1,3,4,1,1,2,1,2,1,2,2,2,2,3,2,1,2,2,2,1,3,4,2,3,2,2,2,1,2,2,2,3,1,3,1,1,1,1,2,2,1,1,2,2,5,1,2,2,4,1,1,1,1,2,1,1,5,2,4,3,2,2,3,2,3,1,1,1,1,4,1,3,1,4,2,1,1,3,3,3,2,1,2,2,1,1,1,2,1,1,1,1,2,2,2,2,2,2,1,1,3,1,3,2,2,2,1,1]
